SPARKNaCl/why3-z3/sparknacl-aes.adb_589_12_loop_invariant_init_1.smt2
;; produced by z3_gnatprove.drv ;;
(set-info :smt-lib-version 2.5)
(set-info :source |VC generated by SPARK 2014|)
(set-info :category industrial)
(set-info :status unknown)
;;; generated by SMT-LIB2 driver
;;; SMT-LIB2 driver: bit-vectors, common part
;;; SMT-LIB2: integer arithmetic
(declare-datatypes ()
  ((int__ref (int__refqtmk (int__content Int)))))

(declare-sort u32 0)

;; "to_rep"
(declare-fun to_rep (u32) (_ BitVec 32))

;; "of_rep"
(declare-fun of_rep ((_ BitVec 32)) u32)

;; "inversion_axiom"
(assert
  (forall ((x u32)) (! (= (of_rep (to_rep x)) x) :pattern ((to_rep x)) )))

;; "range_axiom"
(assert true)

;; "coerce_axiom"
(assert
  (forall ((x (_ BitVec 32)))
    (! (= (to_rep (of_rep x)) x) :pattern ((to_rep (of_rep x))) )))

(declare-sort map1 0)

;; "has_bounds"
(declare-fun has_bounds (map1
  Int
  Int) Bool)

;; "get"
(declare-fun get (map1
  Int) u32)

(declare-datatypes ()
  ((us_split_fields
   (us_split_fieldsqtmk (rec__ada___sparknacl__aes__aes128_key__f map1)))))

(declare-datatypes ()
  ((us_rep (us_repqtmk (us_split_fields1 us_split_fields)))))

;; "dynamic_invariant"
(define-fun dynamic_invariant ((temp___expr_426 us_rep) (temp___is_init_422 Bool) (temp___skip_constant_423 Bool) (temp___do_toplevel_424 Bool) (temp___do_typ_inv_425 Bool)) Bool
  (has_bounds
    (rec__ada___sparknacl__aes__aes128_key__f
      (us_split_fields1 temp___expr_426))
    0
    3))

(declare-const key us_rep)

(declare-sort byte 0)

(declare-datatypes ()
  ((byte__init_wrapper
   (byte__init_wrapperqtmk (rec__value byte)(us_attr__init Bool)))))

(declare-sort map2 0)

(declare-datatypes ()
  ((map__ref (map__refqtmk (map__content map2)))))

;; "has_bounds"
(declare-fun has_bounds1 (map2
  Int
  Int) Bool)

;; "get"
(declare-fun get1 (map2
  Int) byte__init_wrapper)

;; "slide"
(declare-fun slide (map2
  Int
  Int) map2)

;; "slide_eq"
(assert
  (forall ((a map2) (first Int))
    (! (= (slide a first first) a) :pattern ((slide a first first)) )))

;; "slide_def"
(assert
  (forall ((a map2) (old_first Int) (new_first Int))
    (! (and
         (forall ((i Int))
           (! (= (get1 (slide a old_first new_first) i) (get1
                                                          a
                                                          (- i (- new_first old_first)))) :pattern (
           (get1
             (slide a old_first new_first)
             i)) ))
         (forall ((new_last Int))
           (! (=>
                (has_bounds1
                  a
                  old_first
                  (- new_last (- new_first old_first)))
                (has_bounds1
                  (slide a old_first new_first)
                  new_first
                  new_last)) :pattern ((has_bounds1
                                         (slide a old_first new_first)
                                         new_first
                                         new_last)) ))) :pattern ((slide
                                                                    a
                                                                    old_first
                                                                    new_first)) )))

;; "slice"
(declare-fun slice (map2
  Int
  Int) map2)

;; "slice_eq"
(assert
  (forall ((a map2) (f Int) (l Int))
    (! (=> (has_bounds1 a f l) (= (slice a f l) a)) :pattern ((slice a f l)
    (has_bounds1 a f l)) )))

;; "slice_slice"
(assert
  (forall ((a map2) (f1 Int) (l1 Int) (f2 Int) (l2 Int))
    (! (=>
         (and (<= f1 f2) (<= l2 l1))
         (= (slice (slice a f1 l1) f2 l2) (slice a f2 l2))) :pattern (
    (slice
      (slice a f1 l1)
      f2
      l2)) )))

;; "slice_def"
(assert
  (forall ((a map2) (f Int) (l Int))
    (! (forall ((i Int))
         (! (=>
              (and (<= f i) (<= i l))
              (= (get1 (slice a f l) i) (get1 a i))) :pattern ((get1
                                                                 (slice
                                                                   a
                                                                   f
                                                                   l)
                                                                 i)) :pattern (
         (get1
           a
           i)) )) :pattern ((slice a f l)) )))

;; "slice_has_bounds"
(assert
  (forall ((a map2) (f Int) (l Int))
    (! (has_bounds1 (slice a f l) f l) :pattern ((has_bounds1
                                                   (slice a f l)
                                                   f
                                                   l)) )))

;; "to_rep"
(declare-fun to_rep1 (byte) (_ BitVec 8))

;; "of_rep"
(declare-fun of_rep1 ((_ BitVec 8)) byte)

;; "inversion_axiom"
(assert
  (forall ((x byte)) (! (= (of_rep1 (to_rep1 x)) x) :pattern ((to_rep1 x)) )))

;; "range_axiom"
(assert true)

;; "coerce_axiom"
(assert
  (forall ((x (_ BitVec 8)))
    (! (= (to_rep1 (of_rep1 x)) x) :pattern ((to_rep1 (of_rep1 x))) )))

;; "__is_initialized"
(define-fun us_is_initialized ((temp___expr_809 map2)) Bool
  (forall ((temp___810 Int))
    (=>
      (and (<= 0 temp___810) (<= temp___810 3))
      (= (us_attr__init (get1 temp___expr_809 temp___810)) true))))

(declare-sort tinteger_32B 0)

;; "tinteger_32B'int"
(declare-fun tinteger_32Bqtint (tinteger_32B) Int)

;; "tinteger_32B'axiom"
(assert
  (forall ((i tinteger_32B))
    (and
      (<= (- 2147483648) (tinteger_32Bqtint i))
      (<= (tinteger_32Bqtint i) 2147483647))))

;; "in_range"
(define-fun in_range ((x Int)) Bool
  (and (<= (- 2147483648) x) (<= x 2147483647)))

;; "to_rep"
(define-fun to_rep2 ((x tinteger_32B)) Int
  (tinteger_32Bqtint x))

;; "of_rep"
(declare-fun of_rep2 (Int) tinteger_32B)

;; "inversion_axiom"
(assert
  (forall ((x tinteger_32B))
    (! (= (of_rep2 (to_rep2 x)) x) :pattern ((to_rep2 x)) )))

;; "range_axiom"
(assert
  (forall ((x tinteger_32B))
    (! (in_range (to_rep2 x)) :pattern ((to_rep2 x)) )))

;; "coerce_axiom"
(assert
  (forall ((x Int))
    (! (=> (in_range x) (= (to_rep2 (of_rep2 x)) x)) :pattern ((to_rep2
                                                                 (of_rep2 x))) )))

(declare-datatypes ()
  ((t (tqtmk (rec__first tinteger_32B)(rec__last tinteger_32B)))))

;; "mk"
(declare-fun mk (Int
  Int) t)

;; "mk_def"
(assert
  (forall ((f Int) (l Int))
    (! (=>
         (in_range f)
         (=>
           (in_range l)
           (and
             (= (to_rep2 (rec__first (mk f l))) f)
             (= (to_rep2 (rec__last (mk f l))) l)))) :pattern ((mk f l)) )))

(declare-datatypes ()
  ((us_t (us_tqtmk (elts map2)(rt t)))))

;; "to_array"
(define-fun to_array ((a us_t)) map2
  (elts a))

;; "of_array"
(define-fun of_array ((a map2) (f Int) (l Int)) us_t
  (us_tqtmk a (mk f l)))

;; "first"
(define-fun first ((a us_t)) Int
  (to_rep2 (rec__first (rt a))))

;; "last"
(define-fun last ((a us_t)) Int
  (to_rep2 (rec__last (rt a))))

(declare-const result__ map2)

;; "result__'unused"
(define-fun result__qtunused () map__ref
  (map__refqtmk result__))

;; "Assume"
(assert (dynamic_invariant key true false true true))

;; "Assume"
(assert (has_bounds1 result__ 0 15))

(declare-const i Int)

;; "i'unused"
(define-fun iqtunused () int__ref
  (int__refqtmk i))

;; "H"
(assert (= i 0))

;; "int__content'result'unused"
(define-fun int__contentqtresultqtunused () Int
  i)

;; "o"
(define-fun o () Bool
  (ite (<= i 3) true false))

;; "infix <='result'unused"
(define-fun infix_lseqqtresultqtunused () Bool
  o)

;; "int__content'result'unused"
(define-fun int__contentqtresultqtunused1 () Int
  i)

;; "o"
(define-fun o1 () Bool
  (ite (<= 0 i) true false))

;; "infix <='result'unused"
(define-fun infix_lseqqtresultqtunused1 () Bool
  o1)

;; "o"
(define-fun o2 () Bool
  (and o1 o))

;; "andb'result'unused"
(define-fun andbqtresultqtunused () Bool
  o2)

;; "H"
(assert (= o2 true))

;; "temp___loop_entry_1095'unused"
(define-fun temp___loop_entry_1095qtunused () map2
  result__)

;; "map__content'result'unused"
(define-fun map__contentqtresultqtunused () map2
  result__)

;; "int__content'result'unused"
(define-fun int__contentqtresultqtunused2 () Int
  i)

;; "o"
(define-fun o3 () Int
  (* 4 i))

;; "infix *'result'unused"
(define-fun infix_asqtresultqtunused () Int
  o3)

;; "temp___1081"
(define-fun temp___1081 () Int
  (+ o3 3))

;; "infix +'result'unused"
(define-fun infix_plqtresultqtunused () Int
  temp___1081)

;; "int__content'result'unused"
(define-fun int__contentqtresultqtunused3 () Int
  i)

;; "temp___1080"
(define-fun temp___1080 () Int
  (* 4 i))

;; "infix *'result'unused"
(define-fun infix_asqtresultqtunused1 () Int
  temp___1080)

;; "map__content'result'unused"
(define-fun map__contentqtresultqtunused1 () map2
  result__)

;; "Assert"
(assert
  (=>
    (<= temp___1080 temp___1081)
    (and
      (and (<= 0 temp___1080) (<= temp___1080 15))
      (and (<= 0 temp___1081) (<= temp___1081 15)))))

;; "o"
(define-fun o4 () map2
  (slice result__ temp___1080 temp___1081))

;; "slice'result'unused"
(define-fun sliceqtresultqtunused () map2
  o4)

;; "temp___1082"
(define-fun temp___1082 () us_t
  (of_array o4 temp___1080 temp___1081))

;; "of_array'result'unused"
(define-fun of_arrayqtresultqtunused () us_t
  temp___1082)

;; "o"
(define-fun o5 () Int
  temp___1080)

;; "first'result'unused"
(define-fun firstqtresultqtunused () Int
  o5)

;; "o"
(define-fun o6 () map2
  o4)

;; "to_array'result'unused"
(define-fun to_arrayqtresultqtunused () map2
  o6)

;; "temp___1083"
(define-fun temp___1083 () map2
  (slide o6 o5 0))

;; "slide'result'unused"
(define-fun slideqtresultqtunused () map2
  temp___1083)

;; "Assert"
(assert
  (ite (<= temp___1080 temp___1081)
    (and (<= 0 3) (= (- temp___1081 temp___1080) (- 3 0)))
    (< 3 0)))

;; "param__output'unused"
(define-fun param__outputqtunused () map__ref
  (map__refqtmk temp___1083))

;; "map__ref'mk'result'unused"
(define-fun map__refqtmkqtresultqtunused () map__ref
  (map__refqtmk temp___1083))

;; "int__content'result'unused"
(define-fun int__contentqtresultqtunused4 () Int
  i)

;; "temp___idx_1086"
(define-fun temp___idx_1086 () Int
  (* 4 i))

;; "infix *'result'unused"
(define-fun infix_asqtresultqtunused2 () Int
  temp___idx_1086)

;; "int__content'result'unused"
(define-fun int__contentqtresultqtunused5 () Int
  i)

;; "o"
(define-fun o7 () Int
  (* 4 i))

;; "infix *'result'unused"
(define-fun infix_asqtresultqtunused3 () Int
  o7)

;; "temp___idx_1087"
(define-fun temp___idx_1087 () Int
  (+ o7 3))

;; "infix +'result'unused"
(define-fun infix_plqtresultqtunused1 () Int
  temp___idx_1087)

;; "o"
(define-fun o8 () us_split_fields
  (us_split_fields1 key))

;; "__split_fields'result'unused"
(define-fun us_split_fieldsqtresultqtunused () us_split_fields
  o8)

;; "temp___1093"
(define-fun temp___1093 () map1
  (rec__ada___sparknacl__aes__aes128_key__f o8))

;; "rec__ada___sparknacl__aes__aes128_key__f'result'unused"
(define-fun rec__ada___sparknacl__aes__aes128_key__fqtresultqtunused 
  () map1
  temp___1093)

;; "int__content'result'unused"
(define-fun int__contentqtresultqtunused6 () Int
  i)

;; "o"
(define-fun o9 () u32
  (get temp___1093 i))

;; "get'result'unused"
(define-fun getqtresultqtunused () u32
  o9)

(declare-const o10 (_ BitVec 32))

;; "Ensures"
(assert (= (to_rep o9) o10))

;; "to_rep'result'unused"
(define-fun to_repqtresultqtunused () (_ BitVec 32)
  o10)

(declare-const param__output map2)

;; "param__output'unused"
(define-fun param__outputqtunused1 () map__ref
  (map__refqtmk param__output))

;; "H"
(assert (us_is_initialized param__output))

;; "H"
(assert (has_bounds1 param__output 0 3))

;; "H"
(assert true)

;; "H"
(assert true)

;; "int__content'result'unused"
(define-fun int__contentqtresultqtunused7 () Int
  i)

;; "o"
(define-fun o11 () Int
  (* 4 i))

;; "infix *'result'unused"
(define-fun infix_asqtresultqtunused4 () Int
  o11)

;; "map__content'result'unused"
(define-fun map__contentqtresultqtunused2 () map2
  param__output)

;; "temp___1088"
(define-fun temp___1088 () map2
  (slide param__output 0 o11))

;; "slide'result'unused"
(define-fun slideqtresultqtunused1 () map2
  temp___1088)

;; "int__content'result'unused"
(define-fun int__contentqtresultqtunused8 () Int
  i)

;; "o"
(define-fun o12 () Int
  (* 4 i))

;; "infix *'result'unused"
(define-fun infix_asqtresultqtunused5 () Int
  o12)

;; "o"
(define-fun o13 () Int
  (+ o12 3))

;; "infix +'result'unused"
(define-fun infix_plqtresultqtunused2 () Int
  o13)

;; "int__content'result'unused"
(define-fun int__contentqtresultqtunused9 () Int
  i)

;; "o"
(define-fun o14 () Int
  (* 4 i))

;; "infix *'result'unused"
(define-fun infix_asqtresultqtunused6 () Int
  o14)

;; "temp___1089"
(define-fun temp___1089 () us_t
  (of_array temp___1088 o14 o13))

;; "of_array'result'unused"
(define-fun of_arrayqtresultqtunused1 () us_t
  temp___1089)

(declare-const usf map2)

;; "H"
(assert true)

;; "H"
(assert true)

;; "H"
(assert true)

;; "H"
(assert
  (forall ((temp___1090 Int))
    (ite (and
           (<= temp___idx_1086 temp___1090)
           (<= temp___1090 temp___idx_1087))
      (= (get1 usf temp___1090) (get1 temp___1088 temp___1090))
      (= (get1 usf temp___1090) (get1 result__ temp___1090)))))

;; "any'result'unused"
(define-fun anyqtresultqtunused () map2
  usf)

(declare-const result__1 map2)

;; "result__'unused"
(define-fun result__qtunused1 () map__ref
  (map__refqtmk result__1))

;; "H"
(assert (= result__1 usf))

;; "int__content'result'unused"
(define-fun int__contentqtresultqtunused10 () Int
  i)

;; "o"
(define-fun o15 () Int
  (* 4 i))

;; "infix *'result'unused"
(define-fun infix_asqtresultqtunused7 () Int
  o15)

;; "o"
(define-fun o16 () Int
  (+ 0 o15))

;; "infix +'result'unused"
(define-fun infix_plqtresultqtunused3 () Int
  o16)

;; "temp___1101"
(define-fun temp___1101 () Int
  (+ o16 3))

;; "infix +'result'unused"
(define-fun infix_plqtresultqtunused4 () Int
  temp___1101)

;; "map__content'result'unused"
(define-fun map__contentqtresultqtunused3 () map2
  result__1)

;; "Assert"
(assert
  (=>
    (<= 0 temp___1101)
    (and
      (and (<= 0 0) (<= 0 15))
      (and (<= 0 temp___1101) (<= temp___1101 15)))))

;; "o"
(define-fun o17 () map2
  (slice result__1 0 temp___1101))

;; "slice'result'unused"
(define-fun sliceqtresultqtunused1 () map2
  o17)

;; "temp___1102"
(define-fun temp___1102 () us_t
  (of_array o17 0 temp___1101))

;; "of_array'result'unused"
(define-fun of_arrayqtresultqtunused2 () us_t
  temp___1102)

;; "_f'unused"
(define-fun usfqtunused () Bool
  (ite (forall ((temp___1103 Int))
         (=>
           (and (<= 0 temp___1103) (<= temp___1103 temp___1101))
           (= (us_attr__init (get1 o17 temp___1103)) true)))
    true
    false))

;; "any'result'unused"
(define-fun anyqtresultqtunused1 () Bool
  (ite (forall ((temp___1103 Int))
         (=>
           (and (<= 0 temp___1103) (<= temp___1103 temp___1101))
           (= (us_attr__init (get1 o17 temp___1103)) true)))
    true
    false))

;; "temp___1109"
(define-fun temp___1109 () us_t
  (let ((temp___1108 (+ (+ 0 (* 4 i)) 3)))
    (of_array (slice result__1 0 temp___1108) 0 temp___1108)))

(declare-const temp___1110 Int)

;; "H"
(assert (<= (first temp___1109) temp___1110))

;; "H"
(assert (<= temp___1110 (last temp___1109)))

;; Goal "def'vc"
;; File "sparknacl-aes.ads", line 36, characters 0-0
(assert
  (not (= (us_attr__init (get1 (to_array temp___1109) temp___1110)) true)))

(check-sat)
